
******************************************************************************
This program contains Ipopt, a library for large-scale nonlinear optimization.
 Ipopt is released as open source code under the Eclipse Public License (EPL).
         For more information visit http://projects.coin-or.org/Ipopt

This version of Ipopt was compiled from source code available at
    https://github.com/IDAES/Ipopt as part of the Institute for the Design of
    Advanced Energy Systems Process Systems Engineering Framework (IDAES PSE
    Framework) Copyright (c) 2018-2019. See https://github.com/IDAES/idaes-pse.

This version of Ipopt was compiled using HSL, a collection of Fortran codes
    for large-scale scientific computation.  All technical papers, sales and
    publicity material resulting from use of the HSL codes within IPOPT must
    contain the following acknowledgement:
        HSL, a collection of Fortran codes for large-scale scientific
        computation. See http://www.hsl.rl.ac.uk.
******************************************************************************

This is Ipopt version 3.13.2, running with linear solver ma27.

Number of nonzeros in equality constraint Jacobian...:     1210
Number of nonzeros in inequality constraint Jacobian.:        0
Number of nonzeros in Lagrangian Hessian.............:     1376

Total number of variables............................:      480
                     variables with only lower bounds:      128
                variables with lower and upper bounds:      288
                     variables with only upper bounds:        0
Total number of equality constraints.................:      477
Total number of inequality constraints...............:        0
        inequality constraints with only lower bounds:        0
   inequality constraints with lower and upper bounds:        0
        inequality constraints with only upper bounds:        0

iter    objective    inf_pr   inf_du lg(mu)  ||d||  lg(rg) alpha_du alpha_pr  ls
   0  0.0000000e+00 1.38e-01 4.86e-13  -1.0 0.00e+00    -  0.00e+00 0.00e+00   0
   1  1.8987683e+01 2.36e-01 3.15e+06  -1.0 5.04e+05    -  1.93e-01 9.90e-01h  1
   2  1.3306135e+01 1.32e-01 4.89e+07  -1.0 3.32e+05  -4.0 5.97e-01 9.90e-01h  1
   3  1.4453095e+01 1.33e-01 4.50e+07  -1.0 2.11e+06  -4.5 5.07e-01 3.17e-02h  4
   4  1.4431578e+01 1.33e-01 4.40e+07  -1.0 3.84e+06  -5.0 4.75e-01 9.01e-03h  5
   5  1.4075380e+01 1.34e-01 4.39e+07  -1.0 6.88e+07  -5.4 4.80e-02 2.60e-04f  6
   6  1.5840809e+01 1.35e-01 4.13e+07  -1.0 1.93e+06    -  5.15e-01 3.11e-02h  4
   7  1.7890189e+01 1.33e-01 4.03e+07  -1.0 2.62e+06    -  3.05e-01 2.26e-02h  6
   8  1.9346026e+01 1.31e-01 3.98e+07  -1.0 2.70e+06    -  3.09e-01 1.44e-02h  7
   9  2.0063192e+01 1.30e-01 3.95e+07  -1.0 2.61e+06    -  3.39e-01 6.92e-03h  8
iter    objective    inf_pr   inf_du lg(mu)  ||d||  lg(rg) alpha_du alpha_pr  ls
  10  2.0105132e+01 1.30e-01 3.95e+07  -1.0 1.46e+06  -3.2 7.17e-01 6.43e-04h 10
  11  2.0108512e+01 1.30e-01 3.95e+07  -1.0 2.16e+06  -2.8 7.07e-01 8.26e-05h 13
  12  2.0104748e+01 1.30e-01 3.95e+07  -1.0 3.11e+07  -3.3 1.22e-01 4.81e-06f 13
  13  6.0718086e+01 2.06e+01 2.11e+10  -1.0 1.95e+06  -2.8 8.00e-01 3.73e-01w  1
  14  8.7244041e+01 3.06e+01 4.99e+10  -1.0 6.01e+05  -2.4 1.94e-01 9.90e-01w  1
  15  5.9728095e+01 2.38e+00 1.65e+10  -1.0 2.33e+05  -2.0 2.77e-01 9.90e-01w  1
  16  2.0108860e+01 1.30e-01 3.95e+07  -1.0 1.23e+06  -2.4 8.00e-01 9.11e-05h 12
  17  2.0113610e+01 1.30e-01 3.95e+07  -1.0 1.82e+06  -2.9 9.90e-01 9.79e-05h 13
  18  2.0119045e+01 1.30e-01 3.94e+07  -1.0 1.68e+06  -3.4 9.90e-01 1.06e-04h 13
  19  2.0161404e+01 1.30e-01 3.94e+07  -1.0 2.24e+06    -  3.95e-01 4.83e-04h 12
iter    objective    inf_pr   inf_du lg(mu)  ||d||  lg(rg) alpha_du alpha_pr  ls
  20  2.0355548e+01 1.29e-01 3.94e+07  -1.0 2.46e+06    -  5.34e-01 1.93e-03h 10
  21  2.2080176e+01 1.27e-01 3.87e+07  -1.0 2.71e+06    -  4.69e-01 1.55e-02h  7
  22  3.0155030e+01 1.19e-01 3.64e+07  -1.0 2.67e+06    -  4.86e-01 6.19e-02h  5
  23  5.0592044e+01 1.05e-01 3.19e+07  -1.0 2.49e+06    -  5.67e-01 1.24e-01h  4
  24  7.4747848e+01 8.07e-02 1.41e+08  -1.0 9.69e+05  -3.9 9.76e-01 2.44e-01h  3
  25  1.0260556e+02 6.18e-02 1.18e+08  -1.0 9.84e+05  -4.4 1.00e+00 2.47e-01h  3
  26  2.1453682e+02 5.36e+00 7.19e+08  -1.0 6.91e+05  -4.8 1.00e+00 9.90e-01w  1
  27  2.0087361e+02 5.39e-02 4.35e+07  -1.0 7.54e+04  -3.5 7.97e-01 9.90e-01h  1
  28  2.0002515e+02 7.09e-04 4.68e+07  -1.0 7.10e+03  -4.0 9.71e-01 9.90e-01h  1
  29  2.0001526e+02 7.29e-06 5.88e+07  -1.0 1.36e+02  -4.5 9.90e-01 9.90e-01h  1
iter    objective    inf_pr   inf_du lg(mu)  ||d||  lg(rg) alpha_du alpha_pr  ls
  30  2.0001461e+02 7.29e-08 1.26e+10  -1.7 4.84e+00  -4.9 9.93e-01 9.90e-01h  1
  31  1.6343110e+02 2.89e+01 3.09e+14  -1.7 2.32e+06    -  8.01e-01 1.71e-01f  1
  32  1.2215570e+02 2.86e+01 3.29e+14  -1.7 4.61e+07    -  5.09e-02 1.09e-02f  1
  33  1.0162447e+02 2.21e+01 2.57e+14  -1.7 1.74e+06    -  2.34e-01 2.29e-01f  3
  34  1.0142488e+02 1.66e+01 1.84e+14  -1.7 2.08e+06    -  2.36e-01 2.47e-01f  3
In iteration 34, 32 Slacks too small, adjusting variable bounds
  35  9.3037195e+01 2.20e+00 1.21e+13  -1.7 1.91e+05  -5.4 1.00e+00 9.90e-01f  1
  36  7.7094864e+01 3.91e+01 4.01e+14  -1.7 3.31e+05  -5.9 6.06e-01 1.00e+00f  1
  37  5.7620203e+01 3.56e-01 1.38e+06  -1.7 2.95e+05  -5.5 1.00e+00 1.00e+00f  1
  38  5.2293225e+01 5.12e-02 1.06e+05  -1.7 1.46e+05  -5.9 1.00e+00 1.00e+00f  1
  39  5.1465982e+01 1.29e-03 5.81e+03  -2.5 2.87e+04  -6.4 1.00e+00 1.00e+00f  1
iter    objective    inf_pr   inf_du lg(mu)  ||d||  lg(rg) alpha_du alpha_pr  ls
  40  5.1413032e+01 7.97e-07 4.37e+10  -5.7 7.38e+02  -6.9 1.00e+00 1.00e+00h  1
  41  7.3946448e+00 1.78e-01 5.37e+01  -5.7 8.28e+05    -  1.00e+00 1.00e+00f  1
  42  1.1907849e+01 1.24e-01 9.29e+01  -5.7 4.81e+05    -  1.00e+00 1.00e+00h  1
  43  1.1969317e+01 6.13e-02 2.85e+03  -5.7 1.94e+05  -7.4 1.00e+00 5.00e-01h  2
  44  5.7908485e+00 5.46e-02 7.98e+03  -5.7 2.66e+05  -7.9 1.00e+00 1.00e+00f  1
  45  1.0171838e+01 9.47e-03 5.46e+03  -5.7 1.51e+05  -8.3 1.00e+00 1.00e+00h  1
  46  1.0984436e+01 6.18e-04 5.21e+02  -5.7 3.85e+04  -8.8 1.00e+00 1.00e+00h  1
  47  5.9110267e+00 1.90e-02 1.26e+02  -5.7 2.22e+05    -  1.00e+00 1.00e+00f  1
  48  4.4617845e+00 3.91e-02 6.56e+01  -5.7 4.87e+05    -  1.00e+00 5.00e-01f  2
  49  4.7397524e+00 1.17e-02 7.31e+00  -5.7 1.45e+05    -  1.00e+00 1.00e+00h  1
iter    objective    inf_pr   inf_du lg(mu)  ||d||  lg(rg) alpha_du alpha_pr  ls
  50  3.4250097e+00 2.79e-03 1.66e+01  -5.7 4.28e+04  -9.3 1.00e+00 1.00e+00f  1
  51  3.3814937e+00 3.31e-04 2.79e+00  -5.7 2.24e+04    -  1.00e+00 1.00e+00h  1
  52  2.8332233e+00 6.20e+00 4.31e+01  -5.7 1.83e+05    -  1.00e+00 1.00e+00f  1
  53  2.6820717e+00 2.70e-03 1.46e+01  -5.7 6.78e+04  -9.8 1.00e+00 1.00e+00h  1
  54  2.2544803e+00 4.02e-03 4.07e-01  -5.7 6.35e+04    -  1.00e+00 1.00e+00f  1
  55  2.2444874e+00 1.01e-04 7.17e-03  -5.7 5.96e+03    -  1.00e+00 1.00e+00h  1
  56  2.2464612e+00 4.45e-08 1.53e-05  -5.7 1.16e+02    -  1.00e+00 1.00e+00h  1
  57  2.2464607e+00 1.31e-11 4.07e-06  -8.6 7.10e-01    -  1.00e+00 1.00e+00h  1

Number of Iterations....: 57

                                   (scaled)                 (unscaled)
Objective...............:   2.2464606538836418e+00    2.2464606538836418e+00
Dual infeasibility......:   4.0680170059204102e-06    4.0680170059204102e-06
Constraint violation....:   1.3110845742403399e-11    1.3110845742403399e-11
Complementarity.........:   2.5129076264684394e-09    2.5129076264684394e-09
Overall NLP error.......:   7.9251076384250092e-11    4.0680170059204102e-06


Number of objective function evaluations             = 236
Number of objective gradient evaluations             = 58
Number of equality constraint evaluations            = 236
Number of inequality constraint evaluations          = 0
Number of equality constraint Jacobian evaluations   = 58
Number of inequality constraint Jacobian evaluations = 0
Number of Lagrangian Hessian evaluations             = 57
Total CPU secs in IPOPT (w/o function evaluations)   =      0.078
Total CPU secs in NLP function evaluations           =      1.820

EXIT: Optimal Solution Found.
